AME : levi30_19
COMMENT : 30: 36x20 -city problem (levikoppenhol)
TYPE : TSP
DIMENSION : 30
EDGE_WEIGHT_TYPE : EUC_2D
NODE_COORD_SECTION
1 9 30
2 0 1
3 18 18
4 2 32
5 3 36
6 7 33
7 0 22
8 12 4
9 7 8
10 4 4
11 15 23
12 13 27
13 9 26
14 11 12
15 2 16
16 17 21
17 17 31
18 10 28
19 15 6
20 18 32
21 16 31
22 5 29
23 13 13
24 1 22
25 20 28
26 11 32
27 6 13
28 16 6
29 6 1
30 1 15
EOF